NAME: line_80_0
TYPE: TSP
COMMENT: line_80_0
DIMENSION: 80
EDGE_WEIGHT_TYPE: EUC_2D
NODE_COORD_SECTION
1 0.0 199.0
2 0.0 493.0
3 0.0 483.0
4 0.0 268.0
5 0.0 332.0
6 0.0 142.0
7 0.0 237.0
8 0.0 712.0
9 0.0 389.0
10 0.0 587.0
11 0.0 552.0
12 0.0 163.0
13 0.0 168.0
14 0.0 783.0
15 0.0 255.0
16 0.0 677.0
17 0.0 126.0
18 0.0 85.0
19 0.0 713.0
20 0.0 577.0
21 0.0 375.0
22 0.0 577.0
23 0.0 168.0
24 0.0 211.0
25 0.0 501.0
26 0.0 578.0
27 0.0 686.0
28 0.0 332.0
29 0.0 689.0
30 0.0 2.0
31 0.0 772.0
32 0.0 56.0
33 0.0 28.0
34 0.0 789.0
35 0.0 685.0
36 0.0 529.0
37 0.0 727.0
38 0.0 201.0
39 0.0 247.0
40 0.0 238.0
41 0.0 230.0
42 0.0 597.0
43 0.0 631.0
44 0.0 145.0
45 0.0 464.0
46 0.0 501.0
47 0.0 570.0
48 0.0 687.0
49 0.0 524.0
50 0.0 327.0
51 0.0 586.0
52 0.0 478.0
53 0.0 313.0
54 0.0 590.0
55 0.0 406.0
56 0.0 301.0
57 0.0 563.0
58 0.0 285.0
59 0.0 770.0
60 0.0 736.0
61 0.0 560.0
62 0.0 114.0
63 0.0 57.0
64 0.0 476.0
65 0.0 252.0
66 0.0 500.0
67 0.0 595.0
68 0.0 748.0
69 0.0 591.0
70 0.0 778.0
71 0.0 743.0
72 0.0 257.0
73 0.0 796.0
74 0.0 322.0
75 0.0 39.0
76 0.0 12.0
77 0.0 707.0
78 0.0 489.0
79 0.0 541.0
80 0.0 465.0
